ENERGY cutoff - K-POINTS TEST!!
IBRION = 2        ! ion dynamics type
ISIF = 3          ! cell & ions optimization 
ENCUT = 600     ! energy cutoff
NSW = 100         ! number of ion steps
ALGO = Fast       ! electron minimization method
ISPIN = 2
MAGMOM = 32*1.0 
NCORE = 4
LCHARG = .FALSE.   ! charge distributions
LAECHG = .FALSE.   ! charge distributions out for bader
LWAVE =  .FALSE.   ! do or do not print WAVECAR
LORBIT = 11
