Ni1 Sc3
1.0
       13.1020002365         0.0000000000         0.0000000000
        0.0000000000         8.6239995956         0.0000000000
        0.0000000000         0.0000000000         5.8289999962
   Sc   Ni
   24    8
Direct
     0.354000002         0.250000000         0.456400007
     0.646000028         0.750000000         0.543599963
     0.145999998         0.750000000         0.956400037
     0.853999972         0.250000000         0.043599993
     0.110799998         0.250000000         0.206200004
     0.889199972         0.750000000         0.793799996
     0.389200002         0.750000000         0.706200004
     0.610800028         0.250000000         0.293799996
     0.787400007         0.064900003         0.590499997
     0.212599993         0.935100019         0.409500003
     0.712599993         0.935100019         0.090499997
     0.287400007         0.064900003         0.909500003
     0.212599993         0.564899981         0.409500003
     0.787400007         0.435099989         0.590499997
     0.287400007         0.435099989         0.909500003
     0.712599993         0.564899981         0.090499997
     0.534200013         0.060699999         0.753899992
     0.465799987         0.939300001         0.246100008
     0.965799987         0.939300001         0.253899992
     0.034200013         0.060699999         0.746100008
     0.465799987         0.560699999         0.246100008
     0.534200013         0.439300001         0.753899992
     0.034200013         0.439300001         0.746100008
     0.965799987         0.560699999         0.253899992
     0.441700011         0.250000000         0.057000000
     0.558300018         0.750000000         0.943000019
     0.058299989         0.750000000         0.556999981
     0.941699982         0.250000000         0.442999989
     0.178200006         0.250000000         0.627900004
     0.821799994         0.750000000         0.372099996
     0.321799994         0.750000000         0.127900004
     0.678200006         0.250000000         0.872099996
