ENERGY cutoff - K-POINTS TEST!!
LHFCALC = .TRUE.  ! hybrid calculations
GGA = B3          ! B3LYP
AEXX = 0.2
AGGAX = 0.72
ADDAC = 0.81
ALDAC = 0.19
IBRION = 6        ! elastic constants tensor
ISIF = 3          ! cell & ions optimization 
ENCUT = encut     ! energy cutoff
ALGO = Fast       ! electron minimization method
POTIM = 0.01      ! the width of the displacement of each ion 
LAECHG = .FALSE.   ! charge distributions out for bader
LWAVE =  .FALSE.   ! do or do not print WAVECAR
