C8 Ga1 H5 O5
1.0
       21.5627002716         0.0000000000         0.0000000000
        0.0000000000        36.9155006409         0.0000000000
        0.0000000000         0.0000000000         6.8836002350
    H    C    O   Ga
   60   96   60   12
Cartesian
    12.039748905        28.075345517         3.865898614
     9.522950724         8.840155124         0.424098599
    12.039748905         8.840155124         3.017701416
     9.522950724        28.075345517         6.459501738
     9.522950724         8.840155124         3.017701416
    12.039748905        28.075345517         6.459501738
     9.522950724        28.075345517         3.865898614
    12.039748905         8.840155124         0.424098599
     1.258399171        27.297905445         0.424098599
    20.304301502         9.617595196         3.865898614
     1.258399171         9.617595196         6.459501738
    20.304301502        27.297905445         3.017701416
    20.304301502         9.617595196         6.459501738
     1.258399171        27.297905445         3.017701416
    20.304301502        27.297905445         0.424098599
     1.258399171         9.617595196         3.865898614
    17.651872894        31.573088727         3.867550870
     3.910827056         5.342411364         0.425750676
    17.651872894         5.342411364         3.016049365
     3.910827056        31.573088727         6.457849482
     3.910827056         5.342411364         3.016049365
    17.651872894        31.573088727         6.457849482
     3.910827056        31.573088727         3.867550870
    17.651872894         5.342411364         0.425750676
     6.870523401        23.800162234         0.425750676
    14.692177513        13.115339507         3.867550870
     6.870523401        13.115339507         6.457849482
    14.692177513        23.800162234         3.016049365
    14.692177513        13.115339507         6.457849482
     6.870523401        23.800162234         3.016049365
    14.692177513        23.800162234         0.425750676
     6.870523401        13.115339507         3.867550870
    18.862403008        33.766977047         3.866449229
     2.700296943         3.148523044         0.424649291
    18.862403008         3.148523044         3.017150801
     2.700296943        33.766977047         6.458951123
     2.700296943         3.148523044         3.017150801
    18.862403008        33.766977047         6.458951123
     2.700296943        33.766977047         3.866449229
    18.862403008         3.148523044         0.424649291
     8.081052872        21.606273914         0.424649291
    13.481647400        15.309226726         3.866449229
     8.081052872        15.309226726         6.458951123
    13.481647400        21.606273914         3.017150801
    13.481647400        15.309226726         6.458951123
     8.081052872        21.606273914         3.017150801
    13.481647400        21.606273914         0.424649291
     8.081052872        15.309226726         3.866449229
    16.591850470        25.951966941         1.720900059
     4.970849159        10.963534800         5.162700176
    16.591850470        10.963534800         5.162700176
     4.970849159        25.951966941         1.720900059
    15.752199938         7.494215521         1.720900059
     5.810500976        29.421284020         5.162700176
    15.752199938        29.421284020         5.162700176
     5.810500976         7.494215521         1.720900059
     0.000000000         1.837284516         1.720900059
     0.000000000        35.078216263         5.162700176
    10.781350136        16.620465942         5.162700176
    10.781350136        20.295034699         1.720900059
    13.685845869        28.006681853         1.720900059
     7.876854403         8.908817688         5.162700176
    13.685845869         8.908817688         5.162700176
     7.876854403        28.006681853         1.720900059
    18.658204539         9.548932633         1.720900059
     2.904495733        27.366569108         5.162700176
    18.658204539        27.366569108         5.162700176
     2.904495733         9.548932633         1.720900059
    12.185728704        28.065377998         1.720900059
     9.376971567         8.850122093         5.162700176
    12.185728704         8.850122093         5.162700176
     9.376971567        28.065377998         1.720900059
    20.158321703         9.607627677         1.720900059
     1.404378729        27.307872964         5.162700176
    20.158321703        27.307872964         5.162700176
     1.404378729         9.607627677         1.720900059
    11.479119490        28.076084829         2.931725424
    10.083581425         8.839416362         6.373525337
    11.479119490         8.839416362         3.951875016
    10.083581425        28.076084829         0.510074796
    10.083581425         8.839416362         3.951875016
    11.479119490        28.076084829         0.510074796
    10.083581425        28.076084829         2.931725424
    11.479119490         8.839416362         6.373525337
     0.697768952        27.297166132         6.373525337
    20.864930918         9.618333409         2.931725424
     0.697768952         9.618333409         0.510074796
    20.864930918        27.297166132         3.951875016
    20.864930918         9.618333409         0.510074796
     0.697768952        27.297166132         3.951875016
    20.864930918        27.297166132         6.373525337
     0.697768952         9.618333409         2.931725424
    16.953888906        30.074688990         1.720900059
     4.608811687         6.840811650         5.162700176
    16.953888906         6.840811650         5.162700176
     4.608811687        30.074688990         1.720900059
    15.390161502        11.616938670         1.720900059
     6.172538770        25.298561971         5.162700176
    15.390161502        25.298561971         5.162700176
     6.172538770        11.616938670         1.720900059
    17.584597158        31.434656832         1.720900059
     3.978102470         5.480844359         5.162700176
    17.584597158         5.480844359         5.162700176
     3.978102470        31.434656832         1.720900059
    14.759453249        12.976905411         1.720900059
     6.803247665        23.938594130         5.162700176
    14.759453249        23.938594130         5.162700176
     6.803247665        12.976905411         1.720900059
    17.911920055        32.063697489         2.930555059
     3.650780859         4.851804252         6.372355177
    17.911920055         4.851804252         3.953045176
     3.650780859        32.063697489         0.511245007
     3.650780859         4.851804252         3.953045176
    17.911920055        32.063697489         0.511245007
     3.650780859        32.063697489         2.930555059
    17.911920055         4.851804252         6.372355177
     7.130569277        23.309553472         6.372355177
    14.432130352        13.605946069         2.930555059
     7.130569277        13.605946069         0.511245007
    14.432130352        23.309553472         3.953045176
    14.432130352        13.605946069         0.511245007
     7.130569277        23.309553472         3.953045176
    14.432130352        23.309553472         6.372355177
     7.130569277        13.605946069         2.930555059
    18.588557541        33.280799760         2.930830572
     2.974143373         3.634700056         6.372630484
    18.588557541         3.634700056         3.952769868
     2.974143373        33.280799760         0.510969648
     2.974143373         3.634700056         3.952769868
    18.588557541        33.280799760         0.510969648
     2.974143373        33.280799760         2.930830572
    18.588557541         3.634700056         6.372630484
     7.807206763        22.092451201         6.372630484
    13.755492866        14.823050540         2.930830572
     7.807206763        14.823050540         0.510969648
    13.755492866        22.092451201         3.952769868
    13.755492866        14.823050540         0.510969648
     7.807206763        22.092451201         3.952769868
    13.755492866        22.092451201         6.372630484
     7.807206763        14.823050540         2.930830572
    18.951888925        33.888428955         1.720900059
     2.610811828         3.027071136         5.162700176
    18.951888925         3.027071136         5.162700176
     2.610811828        33.888428955         1.720900059
    13.392161482        15.430679734         1.720900059
     8.170538147        21.484822007         5.162700176
    13.392161482        21.484822007         5.162700176
     8.170538147        15.430679734         1.720900059
    19.805124413        35.123622382         1.720900059
     1.757575698         1.791878396         5.162700176
    19.805124413         1.791878396         5.162700176
     1.757575698        35.123622382         1.720900059
    12.538925994        16.665872062         1.720900059
     9.023774278        20.249628579         5.162700176
    12.538925994        20.249628579         5.162700176
     9.023774278        16.665872062         1.720900059
    16.667320877        26.921366465         1.720900059
     4.895379716         9.994133076         5.162700176
    16.667320877         9.994133076         5.162700176
     4.895379716        26.921366465         1.720900059
    15.676729531         8.463616695         1.720900059
     5.885970098        28.451884496         5.162700176
    15.676729531        28.451884496         5.162700176
     5.885970098         8.463616695         1.720900059
     0.000000000         0.867883410         1.720900059
     0.000000000        36.047617987         5.162700176
    10.781350136        17.589866566         5.162700176
    10.781350136        19.325632974         1.720900059
    14.255532350        27.982319741         2.862269738
     7.307167922         8.933182000         6.304069855
    14.255532350         8.933182000         4.021330497
     7.307167922        27.982319741         0.579530328
     7.307167922         8.933182000         4.021330497
    14.255532350        27.982319741         0.579530328
     7.307167922        27.982319741         2.862269738
    14.255532350         8.933182000         6.304069855
     3.474182214        27.390931221         6.304069855
    18.088518058         9.524568320         2.862269738
     3.474182214         9.524568320         0.579530328
    18.088518058        27.390931221         4.021330497
    18.088518058         9.524568320         0.579530328
     3.474182214        27.390931221         4.021330497
    18.088518058        27.390931221         6.304069855
     3.474182214         9.524568320         2.862269738
    16.718208554        29.545690978         2.859447527
     4.844491717         7.369810763         6.301247849
    16.718208554         7.369810763         4.024152503
     4.844491717        29.545690978         0.582352591
     4.844491717         7.369810763         4.024152503
    16.718208554        29.545690978         0.582352591
     4.844491717        29.545690978         2.859447527
    16.718208554         7.369810763         6.301247849
     5.936858418        25.827559983         6.301247849
    15.625841853        11.087939557         2.859447527
     5.936858418        11.087939557         0.582352591
    15.625841853        25.827559983         4.024152503
    15.625841853        11.087939557         0.582352591
     5.936858418        25.827559983         4.024152503
    15.625841853        25.827559983         6.301247849
     5.936858418        11.087939557         2.859447527
    20.149696477        35.582852163         2.861306161
     1.413003794         1.332649578         6.303106073
    20.149696477         1.332649578         4.022294279
     1.413003794        35.582852163         0.580494008
     1.413003794         1.332649578         4.022294279
    20.149696477        35.582852163         0.580494008
     1.413003794        35.582852163         2.861306161
    20.149696477         1.332649578         6.303106073
     9.368346341        19.790398799         6.303106073
    12.194353930        17.125100742         2.861306161
     9.368346341        17.125100742         0.580494008
    12.194353930        19.790398799         4.022294279
    12.194353930        17.125100742         0.580494008
     9.368346341        19.790398799         4.022294279
    12.194353930        19.790398799         6.303106073
     9.368346341        17.125100742         2.861306161
     5.390675068        27.686625481         0.000000000
    16.172025204         9.228875160         3.441800117
     5.390675068         9.228875160         0.000000000
    16.172025204        27.686625481         3.441800117
    16.172025204         9.228875160         0.000000000
     5.390675068        27.686625481         3.441800117
    16.172025204        27.686625481         0.000000000
     5.390675068         9.228875160         3.441800117
     0.000000000         0.000000000         3.441800117
     0.000000000         0.000000000         0.000000000
    10.781350136        18.457750320         0.000000000
    10.781350136        18.457750320         3.441800117
