ENERGY cutoff - K-POINTS TEST!!
ISIF = 3          ! cell & ions optimization 
ENCUT = encut     600
ALGO=Fast
LCHARG = .TRUE.   ! charge distributions
LAECHG = .TRUE.   ! charge distributions out for bader
LWAVE =  .FALSE.   ! do or do not print WAVECAR
