ZIF-8
1.0
       16.9909992218         0.0000000000         0.0000000000
        0.0000000000        16.9909992218         0.0000000000
        0.0000000000         0.0000000000        16.9909992218
    C    H    N   Zn
   96  120   48   12
Direct
     0.377050012         0.007900000         0.622950017
     0.368510008         0.899140000         0.687500000
     0.406100005         0.085500002         0.593900025
     0.007900000         0.622950017         0.377050012
     0.899140000         0.631489992         0.312500000
     0.085500002         0.593900025         0.406100005
     0.622950017         0.992100000         0.622950017
     0.631489992         0.100860000         0.687500000
     0.593900025         0.914499998         0.593900025
     0.992100000         0.377050012         0.377050012
     0.100860000         0.368510008         0.312500000
     0.914499998         0.406100005         0.406100005
     0.377050012         0.992100000         0.377050012
     0.368510008         0.100860000         0.312500000
     0.406100005         0.914499998         0.406100005
     0.992100000         0.622950017         0.622950017
     0.100860000         0.631489992         0.687500000
     0.914499998         0.593900025         0.593900025
     0.622950017         0.007900000         0.377050012
     0.631489992         0.899140000         0.312500000
     0.593900025         0.085500002         0.406100005
     0.007900000         0.377050012         0.622950017
     0.899140000         0.368510008         0.687500000
     0.085500002         0.406100005         0.593900025
     0.622950017         0.377050012         0.007900000
     0.687500000         0.368510008         0.899140000
     0.593900025         0.406100005         0.085500002
     0.377050012         0.377050012         0.992100000
     0.368510008         0.312500000         0.100860000
     0.406100005         0.406100005         0.914499998
     0.377050012         0.622950017         0.007900000
     0.312500000         0.631489992         0.899140000
     0.406100005         0.593900025         0.085500002
     0.622950017         0.622950017         0.992100000
     0.631489992         0.687500000         0.100860000
     0.593900025         0.593900025         0.914499998
     0.687500000         0.631489992         0.100860000
     0.631489992         0.312500000         0.899140000
     0.312500000         0.368510008         0.100860000
     0.368510008         0.687500000         0.899140000
     0.899140000         0.687500000         0.368510008
     0.899140000         0.312500000         0.631489992
     0.312500000         0.100860000         0.368510008
     0.100860000         0.687500000         0.631489992
     0.687500000         0.899140000         0.368510008
     0.100860000         0.312500000         0.368510008
     0.312500000         0.899140000         0.631489992
     0.687500000         0.100860000         0.631489992
     0.877049983         0.507900000         0.122950003
     0.868510008         0.399140000         0.187500000
     0.906099975         0.585500002         0.093900003
     0.507900000         0.122950003         0.877049983
     0.399140000         0.131490007         0.812500000
     0.585500002         0.093900003         0.906099975
     0.122950003         0.492100000         0.122950003
     0.131490007         0.600860000         0.187500000
     0.093900003         0.414499998         0.093900003
     0.492100000         0.877049983         0.877049983
     0.600860000         0.868510008         0.812500000
     0.414499998         0.906099975         0.906099975
     0.877049983         0.492100000         0.877049983
     0.868510008         0.600860000         0.812500000
     0.906099975         0.414499998         0.906099975
     0.492100000         0.122950003         0.122950003
     0.600860000         0.131490007         0.187500000
     0.414499998         0.093900003         0.093900003
     0.122950003         0.507900000         0.877049983
     0.131490007         0.399140000         0.812500000
     0.093900003         0.585500002         0.906099975
     0.507900000         0.877049983         0.122950003
     0.399140000         0.868510008         0.187500000
     0.585500002         0.906099975         0.093900003
     0.122950003         0.877049983         0.507900000
     0.187500000         0.868510008         0.399140000
     0.093900003         0.906099975         0.585500002
     0.877049983         0.877049983         0.492100000
     0.868510008         0.812500000         0.600860000
     0.906099975         0.906099975         0.414499998
     0.877049983         0.122950003         0.507900000
     0.812500000         0.131490007         0.399140000
     0.906099975         0.093900003         0.585500002
     0.122950003         0.122950003         0.492100000
     0.131490007         0.187500000         0.600860000
     0.093900003         0.093900003         0.414499998
     0.187500000         0.131490007         0.600860000
     0.131490007         0.812500000         0.399140000
     0.812500000         0.868510008         0.600860000
     0.868510008         0.187500000         0.399140000
     0.399140000         0.187500000         0.868510008
     0.399140000         0.812500000         0.131490007
     0.812500000         0.600860000         0.868510008
     0.600860000         0.187500000         0.131490007
     0.187500000         0.399140000         0.868510008
     0.600860000         0.812500000         0.868510008
     0.812500000         0.399140000         0.131490007
     0.187500000         0.600860000         0.131490007
     0.377700001         0.858900011         0.723399997
     0.858900011         0.622300029         0.276600003
     0.622300029         0.141100004         0.723399997
     0.541299999         0.920199990         0.574299991
     0.594200015         0.877200007         0.636399984
     0.627600014         0.896099985         0.552500010
     0.141100004         0.377700001         0.276600003
     0.920199990         0.458700001         0.425700009
     0.877200007         0.405800015         0.363599986
     0.896099985         0.372399986         0.447499990
     0.377700001         0.141100004         0.276600003
     0.141100004         0.622300029         0.723399997
     0.622300029         0.858900011         0.276600003
     0.541299999         0.079800002         0.425700009
     0.594200015         0.122800000         0.363599986
     0.627600014         0.103900000         0.447499990
     0.858900011         0.377700001         0.723399997
     0.079800002         0.458700001         0.574299991
     0.122800000         0.405800015         0.636399984
     0.103900000         0.372399986         0.552500010
     0.723399997         0.377700001         0.858900011
     0.377700001         0.276600003         0.141100004
     0.458700001         0.425700009         0.920199990
     0.405800015         0.363599986         0.877200007
     0.372399986         0.447499990         0.896099985
     0.276600003         0.622300029         0.858900011
     0.622300029         0.723399997         0.141100004
     0.541299999         0.574299991         0.920199990
     0.594200015         0.636399984         0.877200007
     0.627600014         0.552500010         0.896099985
     0.723399997         0.622300029         0.141100004
     0.622300029         0.276600003         0.858900011
     0.541299999         0.425700009         0.079800002
     0.594200015         0.363599986         0.122800000
     0.627600014         0.447499990         0.103900000
     0.276600003         0.377700001         0.141100004
     0.377700001         0.723399997         0.858900011
     0.458700001         0.574299991         0.079800002
     0.405800015         0.636399984         0.122800000
     0.372399986         0.552500010         0.103900000
     0.858900011         0.723399997         0.377700001
     0.079800002         0.574299991         0.458700001
     0.122800000         0.636399984         0.405800015
     0.103900000         0.552500010         0.372399986
     0.858900011         0.276600003         0.622300029
     0.276600003         0.141100004         0.377700001
     0.425700009         0.920199990         0.458700001
     0.363599986         0.877200007         0.405800015
     0.447499990         0.896099985         0.372399986
     0.141100004         0.723399997         0.622300029
     0.920199990         0.574299991         0.541299999
     0.877200007         0.636399984         0.594200015
     0.896099985         0.552500010         0.627600014
     0.723399997         0.858900011         0.377700001
     0.141100004         0.276600003         0.377700001
     0.276600003         0.858900011         0.622300029
     0.425700009         0.079800002         0.541299999
     0.363599986         0.122800000         0.594200015
     0.447499990         0.103900000         0.627600014
     0.723399997         0.141100004         0.622300029
     0.877699971         0.358900011         0.223399997
     0.958700001         0.579800010         0.074299999
     0.905799985         0.622799993         0.136399999
     0.872399986         0.603900015         0.052499998
     0.358900011         0.122299999         0.776600003
     0.122299999         0.641099989         0.223399997
     0.041299999         0.420199990         0.074299999
     0.094200000         0.377200007         0.136399999
     0.127599999         0.396100014         0.052499998
     0.641099989         0.877699971         0.776600003
     0.420199990         0.958700001         0.925700009
     0.377200007         0.905799985         0.863600016
     0.396100014         0.872399986         0.947499990
     0.877699971         0.641099989         0.776600003
     0.958700001         0.420199990         0.925700009
     0.905799985         0.377200007         0.863600016
     0.872399986         0.396100014         0.947499990
     0.641099989         0.122299999         0.223399997
     0.122299999         0.358900011         0.776600003
     0.358900011         0.877699971         0.223399997
     0.223399997         0.877699971         0.358900011
     0.877699971         0.776600003         0.641099989
     0.958700001         0.925700009         0.420199990
     0.905799985         0.863600016         0.377200007
     0.872399986         0.947499990         0.396100014
     0.776600003         0.122299999         0.358900011
     0.122299999         0.223399997         0.641099989
     0.041299999         0.074299999         0.420199990
     0.094200000         0.136399999         0.377200007
     0.127599999         0.052499998         0.396100014
     0.223399997         0.122299999         0.641099989
     0.122299999         0.776600003         0.358900011
     0.041299999         0.925700009         0.579800010
     0.094200000         0.863600016         0.622799993
     0.127599999         0.947499990         0.603900015
     0.776600003         0.877699971         0.641099989
     0.877699971         0.223399997         0.358900011
     0.958700001         0.074299999         0.579800010
     0.905799985         0.136399999         0.622799993
     0.872399986         0.052499998         0.603900015
     0.358900011         0.223399997         0.877699971
     0.579800010         0.074299999         0.958700001
     0.622799993         0.136399999         0.905799985
     0.603900015         0.052499998         0.872399986
     0.358900011         0.776600003         0.122299999
     0.579800010         0.925700009         0.041299999
     0.622799993         0.863600016         0.094200000
     0.603900015         0.947499990         0.127599999
     0.776600003         0.641099989         0.877699971
     0.641099989         0.223399997         0.122299999
     0.420199990         0.074299999         0.041299999
     0.377200007         0.136399999         0.094200000
     0.396100014         0.052499998         0.127599999
     0.223399997         0.358900011         0.877699971
     0.074299999         0.579800010         0.958700001
     0.136399999         0.622799993         0.905799985
     0.052499998         0.603900015         0.872399986
     0.641099989         0.776600003         0.877699971
     0.776600003         0.358900011         0.122299999
     0.223399997         0.641099989         0.122299999
     0.409729987         0.968320012         0.682780027
     0.968320012         0.590269983         0.317220002
     0.590269983         0.031679999         0.682780027
     0.031679999         0.409729987         0.317220002
     0.409729987         0.031679999         0.317220002
     0.031679999         0.590269983         0.682780027
     0.590269983         0.968320012         0.317220002
     0.968320012         0.409729987         0.682780027
     0.682780027         0.409729987         0.968320012
     0.409729987         0.317220002         0.031679999
     0.317220002         0.590269983         0.968320012
     0.590269983         0.682780027         0.031679999
     0.682780027         0.590269983         0.031679999
     0.590269983         0.317220002         0.968320012
     0.317220002         0.409729987         0.031679999
     0.409729987         0.682780027         0.968320012
     0.968320012         0.682780027         0.409729987
     0.968320012         0.317220002         0.590269983
     0.317220002         0.031679999         0.409729987
     0.031679999         0.682780027         0.590269983
     0.682780027         0.968320012         0.409729987
     0.031679999         0.317220002         0.409729987
     0.317220002         0.968320012         0.590269983
     0.682780027         0.031679999         0.590269983
     0.909730017         0.468320012         0.182779998
     0.468320012         0.090269998         0.817219973
     0.090269998         0.531679988         0.182779998
     0.531679988         0.909730017         0.817219973
     0.909730017         0.531679988         0.817219973
     0.531679988         0.090269998         0.182779998
     0.090269998         0.468320012         0.817219973
     0.468320012         0.909730017         0.182779998
     0.182779998         0.909730017         0.468320012
     0.909730017         0.817219973         0.531679988
     0.817219973         0.090269998         0.468320012
     0.090269998         0.182779998         0.531679988
     0.182779998         0.090269998         0.531679988
     0.090269998         0.817219973         0.468320012
     0.817219973         0.909730017         0.531679988
     0.909730017         0.182779998         0.468320012
     0.468320012         0.182779998         0.909730017
     0.468320012         0.817219973         0.090269998
     0.817219973         0.531679988         0.909730017
     0.531679988         0.182779998         0.090269998
     0.182779998         0.468320012         0.909730017
     0.531679988         0.817219973         0.909730017
     0.817219973         0.468320012         0.090269998
     0.182779998         0.531679988         0.090269998
     0.500000000         0.000000000         0.750000000
     0.000000000         0.500000000         0.250000000
     0.500000000         0.000000000         0.250000000
     0.000000000         0.500000000         0.750000000
     0.750000000         0.500000000         0.000000000
     0.500000000         0.250000000         0.000000000
     0.250000000         0.500000000         0.000000000
     0.500000000         0.750000000         0.000000000
     0.000000000         0.750000000         0.500000000
     0.000000000         0.250000000         0.500000000
     0.250000000         0.000000000         0.500000000
     0.750000000         0.000000000         0.500000000
